Route 1: 0 81 96 55 33 74 65 32 79 19 47 46 64 0
Route 2: 0 50 61 59 49 51 90 80 0
Route 3: 0 5 21 38 6 95 63 76 44 86 89 45 0
Route 4: 0 78 92 70 82 23 75 35 0
Route 5: 0 72 60 28 98 53 62 84 11 25 15 94 0
Route 6: 0 83 36 41 10 34 14 1 22 99 0
Route 7: 0 9 52 73 27 3 37 18 13 43 0
Route 8: 0 7 26 57 58 39 88 0
Route 9: 0 4 12 69 67 24 30 40 77 66 0
Route 10: 0 87 17 93 91 100 68 0
Route 11: 0 48 2 71 16 31 8 56 85 97 54 0
Route 12: 0 42 29 20 0
